p wcnf 140 1300
3 -135 137 0
3 -129 132 0
9 -128 -137 0
4 -126 132 0
3 -125 -130 0
3 -125 131 0
7 -124 131 0
7 -124 133 0
5 -124 140 0
5 -123 131 0
3 -123 132 0
3 -119 -125 0
9 -119 134 0
8 -119 140 0
1 -118 -130 0
4 -117 122 0
7 -117 127 0
7 -117 133 0
4 -116 137 0
10 -113 -119 0
3 -113 128 0
5 -111 -114 0
4 -111 115 0
10 -111 122 0
6 -111 139 0
4 -110 -138 0
6 -110 -128 0
1 -110 -111 0
2 -109 -118 0
3 -109 -112 0
3 -109 112 0
4 -109 139 0
5 -108 -133 0
2 -108 130 0
7 -106 -132 0
7 -106 121 0
4 -105 -110 0
3 -105 127 0
5 -104 119 0
9 -103 -128 0
8 -103 -123 0
6 -103 -119 0
1 -103 130 0
6 -102 -133 0
4 -102 113 0
2 -101 -106 0
10 -101 102 0
10 -101 119 0
7 -100 -130 0
3 -100 -120 0
10 -100 -112 0
9 -98 122 0
8 -97 -135 0
4 -97 -128 0
8 -97 110 0
4 -97 118 0
6 -96 116 0
4 -96 117 0
4 -95 -135 0
7 -95 136 0
6 -94 116 0
7 -93 -123 0
10 -93 120 0
1 -93 129 0
8 -93 132 0
7 -92 98 0
7 -92 118 0
2 -91 -110 0
9 -91 114 0
2 -91 115 0
1 -91 125 0
7 -90 102 0
7 -89 -95 0
2 -89 129 0
3 -88 -133 0
2 -88 -109 0
2 -88 -106 0
3 -88 96 0
1 -88 112 0
8 -88 133 0
6 -87 -118 0
1 -86 -127 0
7 -86 91 0
3 -86 98 0
4 -86 100 0
5 -85 -122 0
6 -85 -116 0
9 -85 -97 0
9 -85 96 0
10 -84 -121 0
6 -84 -91 0
5 -84 97 0
6 -84 117 0
6 -84 132 0
5 -83 -129 0
4 -83 102 0
3 -82 -119 0
2 -82 -96 0
6 -82 115 0
2 -82 117 0
3 -81 -138 0
6 -81 -101 0
8 -81 86 0
10 -81 90 0
6 -81 92 0
10 -81 118 0
1 -81 140 0
7 -80 -131 0
3 -80 -129 0
2 -80 -125 0
5 -80 -89 0
7 -80 138 0
2 -79 -131 0
2 -79 -104 0
10 -79 -101 0
5 -79 -80 0
6 -79 120 0
6 -78 -104 0
4 -78 83 0
5 -78 104 0
6 -77 -121 0
9 -77 -90 0
9 -76 -104 0
2 -76 -92 0
5 -76 90 0
4 -76 119 0
6 -76 128 0
7 -75 -115 0
6 -75 -85 0
1 -75 -81 0
7 -75 96 0
8 -75 106 0
6 -75 136 0
5 -74 -128 0
8 -74 -75 0
2 -74 88 0
5 -73 -91 0
8 -73 -88 0
8 -73 -77 0
7 -73 -75 0
9 -73 77 0
3 -73 82 0
4 -73 113 0
10 -73 115 0
5 -73 119 0
4 -73 135 0
4 -72 -110 0
10 -72 74 0
9 -72 108 0
7 -72 122 0
5 -71 115 0
6 -70 -100 0
6 -70 -97 0
5 -70 -87 0
7 -70 94 0
1 -69 -129 0
8 -69 -91 0
3 -69 -85 0
7 -69 82 0
4 -69 116 0
3 -69 138 0
4 -68 -83 0
2 -68 -80 0
8 -68 120 0
8 -68 136 0
9 -67 -123 0
9 -67 -85 0
3 -67 -80 0
7 -67 81 0
7 -67 90 0
9 -67 119 0
6 -66 -133 0
9 -66 -108 0
3 -66 -83 0
5 -66 -72 0
4 -65 -123 0
6 -65 -122 0
9 -65 -73 0
4 -65 87 0
6 -64 -132 0
6 -64 -131 0
8 -64 -130 0
1 -64 -78 0
2 -63 -80 0
2 -63 90 0
7 -63 135 0
2 -62 -137 0
10 -62 -122 0
9 -62 78 0
8 -62 110 0
4 -62 134 0
2 -61 -127 0
2 -61 -79 0
5 -61 98 0
8 -61 114 0
9 -61 116 0
4 -60 -84 0
7 -60 81 0
2 -60 103 0
1 -59 -118 0
4 -59 -82 0
1 -59 -61 0
6 -59 107 0
3 -59 115 0
3 -59 132 0
1 -58 -130 0
5 -58 -88 0
8 -58 67 0
9 -58 117 0
8 -57 -109 0
4 -57 -96 0
5 -57 72 0
6 -57 75 0
4 -57 105 0
6 -57 114 0
7 -56 -129 0
1 -56 -82 0
6 -56 121 0
6 -55 -133 0
9 -55 -110 0
4 -55 -101 0
9 -55 -85 0
10 -55 -84 0
5 -55 -63 0
4 -55 63 0
8 -55 120 0
4 -54 -115 0
7 -54 -111 0
5 -54 58 0
5 -54 59 0
7 -54 69 0
7 -54 70 0
6 -53 -135 0
3 -53 -124 0
9 -53 82 0
8 -53 134 0
3 -52 -80 0
4 -52 80 0
6 -52 107 0
2 -52 113 0
2 -51 -96 0
9 -51 -69 0
6 -51 63 0
6 -51 97 0
3 -51 100 0
1 -51 134 0
3 -50 -125 0
3 -50 -115 0
7 -50 -108 0
9 -50 -106 0
2 -50 -58 0
9 -49 -94 0
8 -49 88 0
2 -49 101 0
4 -49 110 0
1 -49 115 0
9 -49 120 0
7 -48 -122 0
7 -48 -113 0
3 -48 -52 0
3 -48 52 0
3 -48 120 0
9 -47 -133 0
7 -47 -110 0
5 -47 -101 0
8 -47 91 0
5 -46 -138 0
7 -46 -108 0
2 -46 -105 0
1 -46 -84 0
8 -46 61 0
3 -46 71 0
10 -45 -117 0
4 -45 -84 0
8 -45 -52 0
3 -45 56 0
4 -45 74 0
2 -44 -123 0
5 -44 -76 0
10 -44 60 0
9 -44 93 0
6 -44 114 0
9 -44 136 0
7 -43 -126 0
7 -43 69 0
3 -43 125 0
7 -42 -100 0
5 -42 -72 0
10 -42 -70 0
4 -42 47 0
8 -42 53 0
2 -42 59 0
7 -42 75 0
7 -42 122 0
9 -41 -74 0
2 -41 44 0
5 -41 70 0
4 -41 88 0
8 -40 -97 0
7 -40 -94 0
4 -40 137 0
6 -39 -117 0
9 -39 -107 0
4 -39 -87 0
8 -39 -65 0
7 -39 80 0
6 -39 104 0
2 -39 108 0
8 -39 139 0
10 -38 -127 0
2 -38 -67 0
8 -38 -41 0
6 -38 -39 0
1 -38 59 0
5 -38 61 0
2 -38 68 0
3 -37 -130 0
2 -37 -116 0
7 -37 -71 0
3 -37 -52 0
5 -37 52 0
4 -37 75 0
4 -37 85 0
2 -37 89 0
1 -36 -129 0
3 -36 -114 0
3 -36 -42 0
6 -36 46 0
5 -36 66 0
10 -36 72 0
3 -36 103 0
9 -36 130 0
5 -35 -123 0
2 -35 -110 0
2 -35 -94 0
4 -35 -90 0
8 -35 -89 0
7 -35 44 0
5 -35 70 0
6 -35 84 0
7 -35 90 0
6 -35 104 0
4 -35 125 0
2 -34 -120 0
6 -34 -97 0
8 -34 49 0
4 -34 73 0
8 -34 131 0
9 -33 -140 0
10 -33 -109 0
1 -33 -62 0
4 -33 -47 0
4 -33 45 0
4 -33 58 0
5 -33 78 0
4 -32 -111 0
6 -32 -109 0
7 -32 -90 0
9 -32 -81 0
10 -32 -72 0
7 -32 -67 0
2 -32 36 0
9 -32 55 0
2 -32 58 0
3 -32 101 0
10 -32 138 0
4 -31 -132 0
10 -31 -124 0
7 -31 -112 0
9 -31 -85 0
6 -31 -47 0
3 -31 38 0
5 -31 57 0
9 -31 65 0
5 -31 97 0
10 -31 120 0
6 -31 133 0
7 -30 -131 0
8 -30 -110 0
5 -30 -73 0
7 -30 50 0
8 -30 82 0
8 -30 84 0
10 -30 105 0
2 -30 109 0
3 -30 121 0
4 -30 138 0
7 -29 -109 0
9 -29 -99 0
3 -29 -96 0
7 -29 -64 0
5 -29 40 0
4 -29 56 0
5 -29 74 0
6 -29 81 0
6 -29 98 0
5 -29 104 0
9 -29 118 0
5 -29 127 0
2 -29 134 0
8 -28 -137 0
1 -28 -131 0
5 -28 -99 0
2 -28 -87 0
9 -28 -64 0
8 -28 -59 0
2 -28 -41 0
5 -28 -36 0
6 -28 55 0
9 -28 58 0
9 -28 82 0
2 -28 94 0
7 -28 111 0
6 -28 118 0
2 -28 119 0
8 -27 -121 0
8 -27 87 0
6 -27 92 0
5 -27 107 0
7 -26 -140 0
8 -26 -131 0
2 -26 -122 0
2 -26 -110 0
2 -26 -51 0
6 -26 -33 0
7 -26 52 0
7 -26 126 0
1 -26 134 0
6 -25 -139 0
3 -25 -132 0
3 -25 -129 0
4 -25 -117 0
3 -25 -99 0
6 -25 -88 0
6 -25 -84 0
2 -25 77 0
5 -25 127 0
7 -25 136 0
6 -25 140 0
9 -24 -140 0
6 -24 42 0
5 -24 105 0
2 -24 110 0
3 -24 123 0
1 -24 130 0
3 -24 140 0
10 -23 -138 0
9 -23 -98 0
7 -23 -94 0
5 -23 -75 0
5 -23 -59 0
5 -23 -48 0
6 -23 -28 0
6 -23 53 0
7 -22 -126 0
2 -22 -122 0
3 -22 -119 0
4 -22 -102 0
2 -22 -87 0
8 -22 80 0
6 -22 91 0
4 -22 116 0
2 -21 -134 0
8 -21 -46 0
9 -21 49 0
6 -21 140 0
9 -20 -136 0
4 -20 -128 0
3 -20 -109 0
5 -20 84 0
3 -20 90 0
8 -20 119 0
9 -20 124 0
4 -20 133 0
9 -20 135 0
10 -19 -138 0
6 -19 -129 0
9 -19 -77 0
8 -19 -53 0
3 -19 75 0
4 -19 81 0
3 -18 -140 0
7 -18 25 0
9 -18 27 0
9 -18 48 0
4 -18 75 0
1 -18 92 0
1 -18 113 0
7 -18 118 0
3 -17 -136 0
8 -17 -90 0
3 -17 -87 0
6 -17 -77 0
9 -17 -59 0
1 -17 -48 0
5 -17 -27 0
6 -17 -18 0
9 -17 22 0
8 -17 27 0
8 -17 57 0
5 -17 83 0
10 -16 -125 0
5 -16 -59 0
4 -16 -34 0
3 -16 -31 0
5 -16 42 0
3 -16 65 0
8 -16 68 0
4 -16 72 0
2 -16 100 0
10 -15 -107 0
7 -15 -105 0
4 -15 -85 0
7 -15 -82 0
6 -15 -59 0
3 -15 -43 0
2 -15 24 0
7 -15 59 0
3 -15 108 0
8 -14 -65 0
8 -14 -53 0
10 -14 38 0
1 -14 68 0
4 -14 69 0
9 -14 78 0
2 -13 -140 0
8 -13 -114 0
5 -13 -66 0
1 -13 -34 0
5 -13 -30 0
2 -13 51 0
5 -13 100 0
5 -13 124 0
6 -13 134 0
7 -13 139 0
8 -12 -70 0
1 -12 -43 0
10 -12 -30 0
6 -12 72 0
4 -12 77 0
1 -11 -69 0
5 -11 -67 0
1 -11 -41 0
4 -11 51 0
3 -11 56 0
7 -11 84 0
6 -11 90 0
4 -11 119 0
3 -11 138 0
8 -10 -107 0
2 -10 -104 0
2 -10 -89 0
8 -10 -85 0
2 -10 -74 0
4 -10 -52 0
7 -10 -23 0
3 -10 -21 0
2 -10 51 0
1 -10 64 0
3 -10 88 0
6 -10 110 0
3 -10 113 0
6 -9 -82 0
2 -9 -65 0
8 -9 -45 0
4 -9 -10 0
8 -9 27 0
8 -9 31 0
3 -9 72 0
4 -8 -116 0
2 -8 -63 0
4 -8 -56 0
8 -8 -18 0
3 -8 -13 0
7 -8 37 0
10 -8 69 0
8 -8 76 0
3 -8 87 0
3 -8 136 0
2 -7 -132 0
1 -7 -112 0
4 -7 -108 0
2 -7 -104 0
8 -7 -92 0
5 -7 -22 0
6 -7 17 0
5 -7 22 0
7 -7 67 0
7 -7 79 0
5 -7 112 0
9 -7 113 0
3 -7 123 0
7 -6 -96 0
5 -6 -89 0
4 -6 -73 0
5 -6 -71 0
8 -6 -46 0
2 -6 -18 0
3 -6 64 0
1 -6 75 0
4 -6 82 0
4 -6 131 0
4 -5 -100 0
2 -5 -65 0
6 -5 43 0
1 -5 88 0
2 -4 -132 0
4 -4 -105 0
3 -4 -102 0
5 -4 -93 0
5 -4 -64 0
3 -4 -9 0
8 -4 35 0
7 -4 69 0
1 -4 95 0
3 -4 100 0
2 -3 -125 0
5 -3 -117 0
9 -3 -62 0
8 -3 -39 0
10 -3 23 0
7 -3 55 0
1 -3 118 0
7 -3 129 0
2 -2 -137 0
4 -2 -103 0
1 -2 -101 0
9 -2 -73 0
5 -2 -13 0
4 -2 47 0
9 -2 65 0
8 -2 70 0
7 -2 114 0
3 -1 -119 0
9 -1 -110 0
3 -1 -107 0
4 -1 -90 0
2 -1 -84 0
7 -1 -23 0
6 -1 66 0
5 -1 68 0
2 -1 127 0
9 -1 134 0
3 1 -136 0
8 1 -83 0
9 1 -77 0
5 1 -65 0
9 1 -57 0
4 1 -21 0
4 2 -129 0
7 2 -109 0
4 2 -4 0
1 2 15 0
7 2 16 0
9 2 63 0
2 2 73 0
10 2 77 0
10 3 -140 0
1 3 -129 0
4 3 -88 0
3 3 8 0
10 3 21 0
2 3 22 0
9 3 44 0
3 3 50 0
2 3 89 0
2 3 116 0
6 3 126 0
2 4 -133 0
8 4 -116 0
2 4 -114 0
7 4 -109 0
9 4 -79 0
10 4 -68 0
9 4 18 0
6 4 35 0
9 4 72 0
4 4 81 0
5 4 92 0
3 4 93 0
7 4 118 0
2 5 -127 0
6 5 -63 0
7 5 -39 0
8 5 -10 0
5 5 8 0
8 5 75 0
8 5 93 0
5 5 99 0
9 5 111 0
3 5 139 0
7 6 -139 0
9 6 -126 0
4 6 -106 0
7 6 -98 0
2 6 -58 0
5 6 65 0
8 6 86 0
7 6 110 0
6 7 -130 0
6 7 -93 0
8 7 -80 0
2 7 -69 0
5 7 -28 0
8 7 12 0
1 8 -117 0
1 8 -77 0
6 8 -16 0
4 8 39 0
6 8 90 0
8 9 -135 0
1 9 -131 0
7 9 -121 0
4 9 -109 0
7 9 -61 0
5 9 -54 0
8 9 -32 0
5 9 24 0
3 9 32 0
2 9 51 0
4 9 111 0
5 9 119 0
9 10 -114 0
3 10 -106 0
8 10 -94 0
6 10 -66 0
4 10 71 0
2 10 80 0
4 10 82 0
10 10 95 0
7 10 119 0
9 11 -120 0
8 11 -118 0
9 11 -110 0
4 11 -74 0
5 11 -65 0
9 11 -52 0
5 11 -35 0
1 11 -16 0
3 11 35 0
9 11 44 0
8 11 72 0
4 11 104 0
6 11 112 0
2 11 122 0
10 11 123 0
10 11 129 0
8 12 -36 0
5 12 -34 0
3 12 -19 0
10 12 52 0
8 12 109 0
7 12 137 0
9 12 138 0
1 13 -115 0
5 13 -58 0
4 13 -46 0
4 13 15 0
6 13 50 0
7 13 61 0
3 14 -133 0
3 14 -121 0
6 14 -80 0
1 14 100 0
2 15 -124 0
10 15 -123 0
5 15 -93 0
10 15 -81 0
4 15 -54 0
5 15 -44 0
3 15 -41 0
3 15 -26 0
3 15 71 0
5 15 74 0
8 15 76 0
4 15 121 0
5 15 129 0
8 16 -110 0
3 16 -49 0
9 16 136 0
1 17 -109 0
2 17 -102 0
8 17 -35 0
7 17 49 0
1 17 114 0
8 17 115 0
2 17 128 0
4 18 -104 0
2 18 -52 0
7 18 -29 0
2 18 -23 0
4 18 41 0
10 18 61 0
7 18 64 0
4 18 110 0
2 18 119 0
7 18 130 0
8 19 -118 0
1 19 -101 0
1 19 -91 0
4 19 -43 0
3 19 -38 0
4 19 -20 0
6 19 69 0
8 19 81 0
2 19 95 0
10 20 -94 0
3 20 -70 0
9 20 -48 0
2 20 34 0
2 20 37 0
9 20 60 0
4 20 104 0
9 20 111 0
7 21 -83 0
4 21 -64 0
7 21 -60 0
8 21 25 0
7 21 42 0
8 21 113 0
5 21 120 0
8 22 -139 0
3 22 -123 0
5 22 -95 0
5 22 -64 0
6 22 -30 0
6 22 38 0
2 22 74 0
4 22 107 0
6 23 -88 0
2 23 -75 0
7 23 -59 0
8 23 28 0
5 23 61 0
4 23 74 0
6 23 97 0
6 23 132 0
3 23 133 0
8 24 -92 0
5 24 -83 0
4 24 -65 0
9 24 -29 0
4 24 25 0
7 24 38 0
8 24 57 0
10 24 66 0
9 24 76 0
6 24 100 0
8 24 113 0
7 25 -113 0
4 25 38 0
3 26 -101 0
4 26 -80 0
5 26 -47 0
7 26 -33 0
9 26 54 0
1 26 61 0
3 26 81 0
10 26 109 0
4 26 123 0
8 26 132 0
2 27 -137 0
2 27 -120 0
6 27 -46 0
6 27 -36 0
4 27 61 0
2 27 63 0
1 27 65 0
6 27 74 0
9 27 80 0
5 27 101 0
10 27 140 0
8 28 -77 0
8 28 -75 0
7 28 -41 0
6 28 -30 0
8 28 -29 0
6 28 70 0
2 28 123 0
5 29 -131 0
3 29 -119 0
4 29 -111 0
7 29 -64 0
6 29 -43 0
8 29 45 0
4 29 56 0
5 29 59 0
9 29 87 0
6 29 105 0
4 30 -139 0
3 30 -123 0
3 30 -112 0
5 30 -105 0
4 30 -101 0
8 30 -92 0
10 30 -87 0
7 30 -85 0
9 30 -52 0
1 30 -38 0
3 30 31 0
8 30 49 0
5 30 66 0
3 30 84 0
6 30 89 0
3 31 -101 0
9 31 -83 0
2 31 -65 0
10 31 33 0
5 31 52 0
3 31 65 0
5 31 68 0
6 31 84 0
6 31 114 0
2 31 120 0
2 31 122 0
4 32 -119 0
5 32 -50 0
6 32 -46 0
3 32 80 0
10 32 135 0
9 33 -139 0
5 33 -112 0
3 33 -104 0
4 33 -54 0
8 33 -45 0
2 33 47 0
4 33 70 0
4 33 120 0
1 33 132 0
4 34 -127 0
7 34 -102 0
8 34 -43 0
9 34 62 0
9 34 87 0
4 34 137 0
2 35 -107 0
7 35 -102 0
5 35 -82 0
2 35 -59 0
2 35 73 0
7 35 74 0
6 36 -130 0
7 36 -129 0
3 36 -96 0
7 36 -51 0
8 36 42 0
6 36 93 0
2 36 97 0
4 36 99 0
8 36 104 0
2 37 -140 0
3 37 -49 0
3 37 -38 0
4 37 59 0
6 37 110 0
9 38 -131 0
5 38 -105 0
9 38 39 0
4 38 42 0
5 38 76 0
4 38 132 0
10 39 -138 0
3 39 -103 0
2 39 69 0
8 39 97 0
6 39 118 0
3 39 121 0
6 39 124 0
1 39 137 0
4 40 -113 0
6 40 -76 0
7 40 -64 0
9 40 -56 0
3 40 130 0
8 41 -132 0
6 41 -119 0
2 41 -100 0
4 41 -84 0
7 41 -65 0
4 41 -44 0
2 41 78 0
8 41 95 0
6 42 -77 0
4 42 -74 0
2 42 -69 0
3 42 -67 0
3 42 75 0
7 42 85 0
2 42 139 0
6 43 -139 0
2 43 -91 0
5 43 -79 0
5 43 -64 0
4 43 -51 0
6 43 55 0
4 43 69 0
9 43 105 0
8 44 -137 0
8 44 -128 0
9 44 -104 0
2 44 -48 0
5 45 -69 0
6 45 -62 0
10 45 -59 0
7 45 47 0
4 45 61 0
5 45 67 0
8 45 81 0
8 45 101 0
2 45 130 0
2 46 67 0
9 46 76 0
9 46 104 0
8 47 -119 0
2 47 -107 0
2 47 -103 0
9 47 -72 0
5 47 57 0
7 47 78 0
1 47 80 0
9 48 -140 0
8 48 -117 0
5 48 -90 0
5 48 -77 0
2 48 -57 0
10 48 -52 0
8 48 71 0
2 49 -117 0
8 49 -112 0
6 49 -102 0
10 49 -65 0
8 49 95 0
10 50 -140 0
6 50 -88 0
8 50 63 0
7 50 69 0
9 50 77 0
3 50 80 0
5 50 125 0
7 51 -129 0
5 51 -108 0
6 51 -80 0
6 51 117 0
4 51 121 0
4 52 -95 0
7 52 61 0
5 52 124 0
4 52 140 0
2 53 -111 0
2 53 -94 0
4 53 -92 0
10 53 70 0
9 54 -138 0
8 54 -108 0
5 54 -67 0
1 54 68 0
8 54 113 0
2 54 134 0
2 55 -125 0
6 55 -94 0
7 55 -86 0
2 55 91 0
4 55 113 0
7 55 117 0
7 55 119 0
2 55 132 0
4 56 -106 0
6 56 -95 0
4 56 -78 0
8 56 88 0
3 56 101 0
8 57 -121 0
5 57 -108 0
8 57 -92 0
2 57 100 0
8 58 -125 0
5 58 -87 0
6 58 68 0
1 59 -130 0
5 59 -100 0
7 59 -63 0
5 59 64 0
5 59 134 0
6 60 -83 0
3 60 86 0
9 60 114 0
6 60 123 0
10 60 126 0
1 61 -135 0
7 61 -125 0
5 61 63 0
8 61 136 0
8 62 -122 0
8 62 80 0
5 62 92 0
5 62 95 0
9 62 114 0
8 62 122 0
1 63 -139 0
4 63 93 0
6 63 104 0
3 63 118 0
2 64 -124 0
1 64 -108 0
1 64 -92 0
3 64 78 0
8 64 97 0
5 65 -139 0
8 65 -117 0
8 66 -135 0
9 66 -120 0
4 67 -107 0
3 67 97 0
5 67 100 0
9 67 124 0
5 67 131 0
4 68 -131 0
5 68 112 0
4 69 -137 0
4 69 -124 0
2 69 84 0
8 69 91 0
2 69 101 0
9 69 119 0
7 69 131 0
5 70 -125 0
4 70 -115 0
6 70 -111 0
3 70 -110 0
4 70 -105 0
9 70 -100 0
9 70 -87 0
6 70 79 0
10 71 88 0
9 71 93 0
6 71 128 0
3 71 131 0
7 71 139 0
1 72 -131 0
9 72 84 0
5 73 -93 0
10 73 91 0
4 73 113 0
7 73 117 0
4 74 -134 0
3 74 -119 0
1 74 -86 0
7 74 92 0
7 74 106 0
5 74 126 0
1 74 139 0
8 75 -100 0
3 75 77 0
2 75 88 0
7 75 102 0
9 75 124 0
6 75 130 0
1 76 -134 0
4 76 -109 0
8 76 86 0
4 76 107 0
3 76 113 0
7 76 129 0
9 77 -122 0
3 77 -93 0
6 77 96 0
5 77 119 0
4 78 -109 0
2 78 -83 0
5 78 -79 0
3 78 108 0
6 78 120 0
5 79 -113 0
6 79 -90 0
3 79 112 0
8 79 113 0
8 79 130 0
3 80 -114 0
5 80 -93 0
5 81 -122 0
7 81 -115 0
5 81 -109 0
3 81 108 0
9 82 94 0
6 82 98 0
10 82 103 0
7 82 106 0
2 82 113 0
10 83 -127 0
2 83 -110 0
9 84 -119 0
4 84 93 0
4 84 110 0
6 84 116 0
2 85 88 0
6 85 100 0
2 85 119 0
6 85 129 0
9 86 -123 0
3 86 -115 0
2 86 -95 0
2 86 -88 0
8 86 87 0
6 86 95 0
7 86 136 0
1 87 93 0
4 87 98 0
5 87 107 0
4 87 115 0
8 88 -97 0
9 88 130 0
10 88 138 0
3 89 -135 0
3 89 -134 0
9 89 -133 0
8 89 101 0
2 89 110 0
6 90 -105 0
9 90 94 0
2 90 102 0
7 90 103 0
8 90 135 0
5 91 -131 0
10 91 -116 0
4 91 120 0
6 91 122 0
6 91 137 0
5 92 -136 0
2 92 -121 0
4 92 119 0
7 92 128 0
3 93 136 0
6 95 -116 0
5 95 98 0
8 95 113 0
3 95 116 0
5 96 -127 0
1 96 -122 0
8 96 -106 0
8 97 -130 0
8 97 102 0
7 97 109 0
8 98 -135 0
1 98 -115 0
9 98 -113 0
6 98 -112 0
8 98 -99 0
1 99 -115 0
2 99 109 0
7 100 -129 0
2 100 -117 0
8 100 104 0
5 100 133 0
6 101 -135 0
8 101 -131 0
8 101 -105 0
2 101 135 0
4 102 -119 0
3 102 -114 0
3 102 137 0
7 103 118 0
9 104 110 0
5 104 118 0
3 105 -137 0
4 105 117 0
3 106 -114 0
5 107 114 0
8 107 118 0
3 107 126 0
3 108 120 0
6 108 138 0
1 109 131 0
9 109 134 0
3 111 128 0
1 111 140 0
7 112 -118 0
9 112 127 0
8 112 130 0
7 113 -119 0
10 113 123 0
5 114 -137 0
9 114 -130 0
8 115 120 0
8 116 -131 0
4 118 -131 0
6 119 135 0
6 121 -122 0
5 121 126 0
8 121 137 0
8 125 137 0
7 126 -130 0
6 127 -134 0
6 127 133 0
2 127 137 0
7 128 -132 0
9 129 137 0
4 130 -131 0
3 133 -138 0
7 134 140 0
6 136 -137 0
